TCS_Benchmarks/redos_fix/corpus2_output_distinct_1295_1294_0_0.txt
([^ ]*)([A-Z]{3})
([^ ]*)(\.)([A-Z]{3})